p cnf 36 118
c p weight -13 1 0
c p weight 13 -1 0
c p weight 17 6.12323399573676603586882014729198302312846062338790031898128063403419218957424163818359375E-17 0
c p weight -17 1 0
c p weight 18 1 0
c p weight -18 1 0
c p weight -15 1 0
c p weight 15 -1 0
c p weight -19 1 0
c p weight 19 -1 0
c p weight -21 1 0
c p weight 21 -1 0
c p weight -24 1 0
c p weight 24 -1 0
c p weight -27 1 0
c p weight 27 -1 0
c p weight -30 1 0
c p weight 30 -1 0
c p weight -33 1 0
c p weight 33 -1 0
c p weight 36 0.5 0
c p weight -36 1 0
36 0
-11 0
-9 0
-7 0
-5 0
-3 0
-1 0
-13 11 0
-13 12 0
13 -11 -12 0
14 11 -12 0
14 -11 12 0
-14 11 12 0
-14 -11 -12 0
-15 16 0
-15 14 0
-15 -11 0
15 -16 11 -14 0
16 -11 14 0
-16 11 14 0
-17 14 0
16 -17 -11 0
-16 -17 11 0
16 17 11 -14 0
-16 17 -11 -14 0
-18 14 0
16 -18 11 0
-16 -18 -11 0
16 18 -11 -14 0
-16 18 11 -14 0
-19 16 0
-19 14 0
19 -16 -14 0
20 16 -14 0
20 -16 14 0
-20 16 14 0
-20 -16 -14 0
-21 16 0
-21 10 0
-21 9 -20 0
-21 -9 20 0
21 -16 9 20 -10 0
21 -16 -9 -20 -10 0
23 16 -9 0
23 -16 9 0
-23 16 9 0
-23 -16 -9 0
22 20 -10 0
22 -20 10 0
-22 20 10 0
-22 -20 -10 0
-24 23 0
-24 8 0
-24 7 -10 0
-24 -7 10 0
24 -23 7 10 -8 0
24 -23 -7 -10 -8 0
26 23 -7 0
26 -23 7 0
-26 23 7 0
-26 -23 -7 0
25 10 -8 0
25 -10 8 0
-25 10 8 0
-25 -10 -8 0
-27 26 0
-27 6 0
-27 5 -8 0
-27 -5 8 0
27 -26 5 8 -6 0
27 -26 -5 -8 -6 0
29 26 -5 0
29 -26 5 0
-29 26 5 0
-29 -26 -5 0
28 8 -6 0
28 -8 6 0
-28 8 6 0
-28 -8 -6 0
-30 29 0
-30 4 0
-30 3 -6 0
-30 -3 6 0
30 -29 3 6 -4 0
30 -29 -3 -6 -4 0
32 29 -3 0
32 -29 3 0
-32 29 3 0
-32 -29 -3 0
31 6 -4 0
31 -6 4 0
-31 6 4 0
-31 -6 -4 0
-33 32 0
-33 2 0
-33 1 -4 0
-33 -1 4 0
33 -32 1 4 -2 0
33 -32 -1 -4 -2 0
35 32 -1 0
35 -32 1 0
-35 32 1 0
-35 -32 -1 0
34 4 -2 0
34 -4 2 0
-34 4 2 0
-34 -4 -2 0
-35 0
-32 0
-34 0
-29 0
-31 0
-26 0
-28 0
-23 0
-25 0
-16 0
-22 0
